Name: unknown261
Spectrum_type: MS2
PrecursorMZ: 237.1496
InChIKey: LQZXAHKUYJVAAR-UHFFFAOYSA-N
Formula: C14H22O3
ExactMass: 238.1568862
Precursor_type: [M-H]-
Collision_enerty: 35ev
Ion_mode: N
Comment: 15909casmi_neg35 intensity 29826950
Num peaks: 22
57.03318	3543
57.77555	4258
59.14923	3586
59.28555	72622
59.28939	48609
62.9163	3562
69.03319	54347
71.04864	8063
122.51353	4474
163.11174	4847
177.1277	15280
191.14307	202913
193.15878	380431
200.57434	4094
216.88069	22037
235.13275	16173
237.04477	5782
237.09073	92166
237.10292	22117
237.14883	7268993
237.20183	17476
237.20824	11966
